benchmarks/crafted/unpropagate.cnf
p cnf 220 106
-1 2 0
-3 1 0
-4 3 0
-5 6 7 0
-8 9 0
-10 8 0
-11 10 0
-12 11 0
-13 12 14 0
-15 16 17 0
-16 15 17 0
-18 19 0
-20 18 0
-21 20 22 0
-20 21 22 0
-23 24 0
-25 23 0
-25 26 27 0
-28 29 0
-30 28 31 0
-32 3 33 0
-22 -24 0
-17 -19 0
-14 -16 0
-34 -8 0
35 36 0
-37 38 0
-39 -2 0
-40 -41 42 0
-38 -33 43 0
-44 -45 46 47 0
-47 46 44 0
-48 49 -50 51 52 0
52 -53 54 55 -56 0
57 58 -59 60 61 -62 -63 64 -65 66 -67 68 69 -70 51 71 -72 73 -74 75 -76 77 78 -79 80 -81 -82 -83 -84 -85 86 87 -88 89 90 -91 92 -93 -94 95 -96 -97 98 99 -100 101 102 103 -48 104 -105 106 107 108 109 0
110 -111 0
-112 0
-113 0
-114 0
-115 0
-116 -117 0
-118 119 0
120 -121 122 -123 -124 -125 126 -127 -128 -129 130 131 58 -132 133 -134 -135 136 137 138 139 140 -141 -142 143 -70 144 145 146 147 -148 -149 -150 82 -151 152 -153 154 56 155 156 157 158 159 160 -48 -53 0
-52 0
48 56 0
-161 162 148 0
-163 0
-164 0
-165 -166 0
-167 -168 0
37 -169 0
170 -171 0
-172 173 0
-119 161 0
174 -54 0
-119 175 176 0
-44 167 0
53 177 0
177 178 -144 48 148 0
48 -94 0
-148 48 0
-179 165 0
168 -110 0
180 94 0
-178 -57 48 0
176 -181 -182 -183 184 185 -145 186 -146 153 187 188 189 190 -54 191 192 -193 -194 130 195 196 -93 197 -198 127 68 199 -126 71 57 200 201 -53 48 -177 0
178 48 -177 0
187 -202 57 -177 0
-202 57 -177 0
-203 0
-162 0
-202 -48 0
169 0
54 202 0
204 0
39 0
205 0
47 0
206 0
-207 0
208 0
171 0
-54 111 0
-209 0
-7 0
-210 0
-6 0
-55 118 115 119 113 -180 211 0
-212 56 0
-211 164 0
26 -213 0
-206 30 0
-170 21 0
214 -215 0
-205 15 0
216 -174 0
13 -208 0
-46 -217 0
-47 31 -217 0
-47 -31 217 0
-218 219 -165 0
220 25 0
220 29 0
-29 -220 0
-34 216 0
-216 34 0
