benchmarks/crafted/unpropagate.drat
d -5 7 6 0
-3 33 0
d -39 -2 0
-43 0
-9 0
0
